set F := 0 1 2;
set L := 0 1 2 3 4; 

param temps_nettoyage: 0 1 2 :=
				0 0 0 99
				1  99 0 0
				2 99 99 0;
				
param besoin := 0 67 1 100 2 17;
 
param temps_max := 300;

param chemin := 0 0 1 1 2 0 3 0 4 0;

param lien := 0 1 1 0 2 1;